n = 50;
C = 242;
w = [226,262,418,284,177,227,192,120,270,78,461,362,440,176,191,399,107,451,43,149,240,262,275,49,432,75,419,356,276,159,1,393,438,122,248,48,491,220,309,338,108,1,1,239,429,234,32,139,377,366];
p = [231,235,437,287,151,195,157,138,309,73,436,395,396,189,222,368,137,421,78,125,266,262,294,77,463,36,424,341,240,141,4,376,454,84,280,70,450,201,288,347,60,47,-20,210,386,236,54,172,361,369];
